(set-logic ALL)
(declare-fun var0 () String)
(assert (str.in_re var0 (re.++ (re.* (re.+ (str.to_re "00"))) (re.++ (re.+ (re.+ (str.to_re "11"))) (re.++ (re.* (re.+ (str.to_re "22"))) (re.++ (re.+ (re.union (str.to_re "333") (str.to_re "444"))) (re.++ (re.+ (re.* (str.to_re "5"))) (re.++ (re.* (re.* (str.to_re "66"))) (re.++ (re.union (re.* (str.to_re "7")) (re.* (str.to_re "888"))) (re.++ (re.* (re.union (str.to_re "99") (str.to_re "aaa"))) (re.++ (re.union (re.union (str.to_re "bb") (str.to_re "ccc")) (re.union (str.to_re "d") (str.to_re "eee"))) (re.++ (re.+ (re.union (str.to_re "ff") (str.to_re "gg"))) (re.++ (re.union (re.+ (str.to_re "hh")) (re.+ (str.to_re "i"))) (re.++ (re.union (re.* (str.to_re "j")) (re.* (str.to_re "kk"))) (re.++ (re.+ (re.+ (str.to_re "lll"))) (re.++ (re.* (re.+ (str.to_re "mmm"))) (re.++ (re.+ (re.union (str.to_re "nnn") (str.to_re "o"))) (re.++ (re.+ (re.union (str.to_re "p") (str.to_re "qqq"))) (re.++ (re.* (re.+ (str.to_re "r"))) (re.++ (re.+ (re.union (str.to_re "ss") (str.to_re "ttt"))) (re.++ (re.* (re.union (str.to_re "uu") (str.to_re "vv"))) (re.++ (re.+ (re.union (str.to_re "www") (str.to_re "xx"))) (re.++ (re.+ (re.+ (str.to_re "yyy"))) (re.++ (re.union (re.union (str.to_re "z") (str.to_re "A")) (re.union (str.to_re "B") (str.to_re "CC"))) (re.++ (re.* (re.* (str.to_re "D"))) (re.++ (re.+ (re.* (str.to_re "EE"))) (re.++ (re.+ (re.+ (str.to_re "F"))) (re.++ (re.union (re.+ (str.to_re "G")) (re.+ (str.to_re "HHH"))) (re.++ (re.* (re.* (str.to_re "II"))) (re.++ (re.union (re.+ (str.to_re "J")) (re.+ (str.to_re "K"))) (re.++ (re.+ (re.union (str.to_re "LLL") (str.to_re "M"))) (re.++ (re.* (re.union (str.to_re "NN") (str.to_re "O"))) (re.++ (re.* (re.* (str.to_re "PPP"))) (re.++ (re.+ (re.* (str.to_re "QQ"))) (re.++ (re.union (re.* (str.to_re "R")) (re.* (str.to_re "SSS"))) (re.++ (re.union (re.+ (str.to_re "T")) (re.+ (str.to_re "U"))) (re.++ (re.* (re.* (str.to_re "VV"))) (re.union (re.+ (str.to_re "WW")) (re.+ (str.to_re "XX"))))))))))))))))))))))))))))))))))))))))
(assert (not (str.in_re var0 (re.++ (re.union (re.union (str.to_re "0") (str.to_re "111")) (re.union (str.to_re "2") (str.to_re "333"))) (re.++ (re.+ (re.* (str.to_re "4"))) (re.++ (re.+ (re.* (str.to_re "555"))) (re.++ (re.+ (re.union (str.to_re "6") (str.to_re "77"))) (re.++ (re.* (re.* (str.to_re "8"))) (re.++ (re.+ (re.union (str.to_re "9") (str.to_re "aa"))) (re.++ (re.union (re.union (str.to_re "bb") (str.to_re "cc")) (re.union (str.to_re "dd") (str.to_re "eee"))) (re.++ (re.* (re.+ (str.to_re "ff"))) (re.++ (re.* (re.union (str.to_re "gg") (str.to_re "h"))) (re.++ (re.+ (re.union (str.to_re "i") (str.to_re "jj"))) (re.++ (re.union (re.+ (str.to_re "kk")) (re.+ (str.to_re "ll"))) (re.++ (re.union (re.+ (str.to_re "mmm")) (re.+ (str.to_re "nnn"))) (re.++ (re.+ (re.union (str.to_re "ooo") (str.to_re "p"))) (re.++ (re.union (re.+ (str.to_re "qq")) (re.+ (str.to_re "r"))) (re.++ (re.union (re.union (str.to_re "sss") (str.to_re "t")) (re.union (str.to_re "uu") (str.to_re "vv"))) (re.++ (re.* (re.+ (str.to_re "w"))) (re.++ (re.+ (re.+ (str.to_re "xxx"))) (re.++ (re.+ (re.+ (str.to_re "y"))) (re.++ (re.* (re.+ (str.to_re "zz"))) (re.++ (re.union (re.+ (str.to_re "A")) (re.+ (str.to_re "BBB"))) (re.++ (re.* (re.+ (str.to_re "CCC"))) (re.++ (re.* (re.* (str.to_re "D"))) (re.++ (re.* (re.+ (str.to_re "E"))) (re.++ (re.* (re.* (str.to_re "FFF"))) (re.++ (re.* (re.union (str.to_re "G") (str.to_re "HHH"))) (re.++ (re.+ (re.+ (str.to_re "III"))) (re.++ (re.* (re.* (str.to_re "J"))) (re.++ (re.union (re.* (str.to_re "KKK")) (re.* (str.to_re "L"))) (re.++ (re.union (re.union (str.to_re "MM") (str.to_re "N")) (re.union (str.to_re "O") (str.to_re "PP"))) (re.++ (re.* (re.+ (str.to_re "QQ"))) (re.++ (re.union (re.union (str.to_re "RR") (str.to_re "S")) (re.union (str.to_re "T") (str.to_re "UU"))) (re.++ (re.union (re.* (str.to_re "VVV")) (re.* (str.to_re "W"))) (re.++ (re.union (re.+ (str.to_re "XX")) (re.+ (str.to_re "YYY"))) (re.++ (re.union (re.union (str.to_re "ZZ") (str.to_re "!!")) (re.union (str.to_re """""""") (str.to_re "##"))) (re.++ (re.union (re.union (str.to_re "$$") (str.to_re "%%")) (re.union (str.to_re "&&&") (str.to_re "''"))) (re.* (re.* (str.to_re "(")))))))))))))))))))))))))))))))))))))))))
(check-sat)